generated by phonopy
   1.0
     1.8749394876606682    6.3219101432524356    0.0000000000000000
     1.8749394876606682   -6.3219101432524356    0.0000000000000000
     0.0000000000000000   -2.8159266378050236   -7.9248787725843055
Nd Cu O
   4    2    7
Direct
  0.3419979180198737  0.6580020819801263  0.6815855960461893
  0.6580020819801264  0.3419979180198735  0.3184144039538107
  0.6423447046262848  0.3576552953737151  0.8332599358982222
  0.3576552953737152  0.6423447046262848  0.1667400641017778
  0.0000000000000000  0.0000000000000000  0.0000000000000000
  0.0000000000000000  0.0000000000000000  0.5000000000000000
  0.0097100777072684  0.9902899222927316  0.2902255179972790
  0.2751814107833127  0.7248185892166874  0.3847186997846248
  0.4999999999999999  0.4999999999999999  0.0000000000000000
  0.7469448442109238  0.2530551557890762  0.1195282977689365
  0.7248185892166874  0.2751814107833125  0.6152813002153752
  0.2530551557890762  0.7469448442109237  0.8804717022310635
  0.9902899222927316  0.0097100777072683  0.7097744820027210
