Nd Cu O 
 1.0000000000000000
     5.6248184629820042   18.9657304297573077    0.0000000000000000
     5.6248184629820042  -18.9657304297573077    0.0000000000000000
     0.0000000000000000   -8.4477799134150704  -23.7746363177529147
 Nd  Cu  O  
 108  54 189
Direct
  0.1139993060066245  0.2193340273267088  0.2271951986820631
  0.4473326393399579  0.2193340273267088  0.2271951986820631
  0.7806659726732913  0.2193340273267088  0.2271951986820631
  0.1139993060066245  0.5526673606600422  0.2271951986820631
  0.4473326393399579  0.5526673606600422  0.2271951986820631
  0.7806659726732912  0.5526673606600421  0.2271951986820631
  0.1139993060066245  0.8860006939933752  0.2271951986820631
  0.4473326393399580  0.8860006939933756  0.2271951986820631
  0.7806659726732911  0.8860006939933752  0.2271951986820631
  0.1139993060066245  0.2193340273267088  0.5605285320153964
  0.4473326393399579  0.2193340273267088  0.5605285320153964
  0.7806659726732913  0.2193340273267088  0.5605285320153964
  0.1139993060066243  0.5526673606600421  0.5605285320153964
  0.4473326393399577  0.5526673606600421  0.5605285320153964
  0.7806659726732912  0.5526673606600421  0.5605285320153964
  0.1139993060066244  0.8860006939933753  0.5605285320153964
  0.4473326393399577  0.8860006939933753  0.5605285320153964
  0.7806659726732911  0.8860006939933753  0.5605285320153964
  0.1139993060066246  0.2193340273267088  0.8938618653487298
  0.4473326393399579  0.2193340273267088  0.8938618653487298
  0.7806659726732913  0.2193340273267088  0.8938618653487298
  0.1139993060066245  0.5526673606600421  0.8938618653487298
  0.4473326393399577  0.5526673606600421  0.8938618653487298
  0.7806659726732912  0.5526673606600421  0.8938618653487298
  0.1139993060066244  0.8860006939933753  0.8938618653487298
  0.4473326393399577  0.8860006939933753  0.8938618653487298
  0.7806659726732910  0.8860006939933753  0.8938618653487298
  0.2193340273267088  0.1139993060066245  0.1061381346512702
  0.5526673606600423  0.1139993060066245  0.1061381346512702
  0.8860006939933754  0.1139993060066245  0.1061381346512702
  0.2193340273267087  0.4473326393399578  0.1061381346512702
  0.5526673606600422  0.4473326393399578  0.1061381346512702
  0.8860006939933754  0.4473326393399578  0.1061381346512702
  0.2193340273267087  0.7806659726732911  0.1061381346512702
  0.5526673606600423  0.7806659726732913  0.1061381346512702
  0.8860006939933754  0.7806659726732911  0.1061381346512702
  0.2193340273267088  0.1139993060066245  0.4394714679846035
  0.5526673606600422  0.1139993060066245  0.4394714679846035
  0.8860006939933754  0.1139993060066244  0.4394714679846035
  0.2193340273267087  0.4473326393399578  0.4394714679846035
  0.5526673606600423  0.4473326393399579  0.4394714679846035
  0.8860006939933754  0.4473326393399578  0.4394714679846035
  0.2193340273267087  0.7806659726732911  0.4394714679846035
  0.5526673606600421  0.7806659726732911  0.4394714679846035
  0.8860006939933754  0.7806659726732911  0.4394714679846035
  0.2193340273267088  0.1139993060066245  0.7728048013179368
  0.5526673606600422  0.1139993060066245  0.7728048013179368
  0.8860006939933753  0.1139993060066245  0.7728048013179368
  0.2193340273267088  0.4473326393399578  0.7728048013179368
  0.5526673606600422  0.4473326393399579  0.7728048013179368
  0.8860006939933754  0.4473326393399578  0.7728048013179368
  0.2193340273267089  0.7806659726732913  0.7728048013179368
  0.5526673606600422  0.7806659726732913  0.7728048013179368
  0.8860006939933753  0.7806659726732911  0.7728048013179368
  0.2141149015420949  0.1192184317912384  0.2777533119660741
  0.5474482348754283  0.1192184317912384  0.2777533119660741
  0.8807815682087617  0.1192184317912384  0.2777533119660741
  0.2141149015420949  0.4525517651245716  0.2777533119660741
  0.5474482348754284  0.4525517651245717  0.2777533119660741
  0.8807815682087617  0.4525517651245717  0.2777533119660741
  0.2141149015420947  0.7858850984579048  0.2777533119660741
  0.5474482348754283  0.7858850984579049  0.2777533119660741
  0.8807815682087615  0.7858850984579048  0.2777533119660741
  0.2141149015420949  0.1192184317912384  0.6110866452994074
  0.5474482348754283  0.1192184317912384  0.6110866452994074
  0.8807815682087617  0.1192184317912384  0.6110866452994074
  0.2141149015420950  0.4525517651245717  0.6110866452994074
  0.5474482348754284  0.4525517651245717  0.6110866452994074
  0.8807815682087617  0.4525517651245717  0.6110866452994074
  0.2141149015420947  0.7858850984579049  0.6110866452994074
  0.5474482348754283  0.7858850984579049  0.6110866452994074
  0.8807815682087617  0.7858850984579049  0.6110866452994074
  0.2141149015420949  0.1192184317912383  0.9444199786327406
  0.5474482348754283  0.1192184317912384  0.9444199786327406
  0.8807815682087617  0.1192184317912383  0.9444199786327406
  0.2141149015420950  0.4525517651245717  0.9444199786327406
  0.5474482348754284  0.4525517651245717  0.9444199786327406
  0.8807815682087617  0.4525517651245717  0.9444199786327406
  0.2141149015420949  0.7858850984579049  0.9444199786327406
  0.5474482348754283  0.7858850984579049  0.9444199786327406
  0.8807815682087617  0.7858850984579049  0.9444199786327406
  0.1192184317912384  0.2141149015420949  0.0555800213672593
  0.4525517651245717  0.2141149015420949  0.0555800213672593
  0.7858850984579050  0.2141149015420949  0.0555800213672593
  0.1192184317912384  0.5474482348754283  0.0555800213672593
  0.4525517651245717  0.5474482348754283  0.0555800213672593
  0.7858850984579050  0.5474482348754283  0.0555800213672593
  0.1192184317912382  0.8807815682087615  0.0555800213672593
  0.4525517651245716  0.8807815682087615  0.0555800213672593
  0.7858850984579049  0.8807815682087615  0.0555800213672593
  0.1192184317912384  0.2141149015420949  0.3889133547005926
  0.4525517651245717  0.2141149015420949  0.3889133547005926
  0.7858850984579050  0.2141149015420949  0.3889133547005926
  0.1192184317912385  0.5474482348754283  0.3889133547005926
  0.4525517651245717  0.5474482348754283  0.3889133547005926
  0.7858850984579050  0.5474482348754283  0.3889133547005926
  0.1192184317912382  0.8807815682087615  0.3889133547005926
  0.4525517651245717  0.8807815682087615  0.3889133547005926
  0.7858850984579049  0.8807815682087615  0.3889133547005926
  0.1192184317912384  0.2141149015420949  0.7222466880339260
  0.4525517651245717  0.2141149015420949  0.7222466880339260
  0.7858850984579050  0.2141149015420949  0.7222466880339260
  0.1192184317912383  0.5474482348754283  0.7222466880339260
  0.4525517651245717  0.5474482348754283  0.7222466880339260
  0.7858850984579050  0.5474482348754283  0.7222466880339260
  0.1192184317912384  0.8807815682087616  0.7222466880339260
  0.4525517651245717  0.8807815682087616  0.7222466880339260
  0.7858850984579050  0.8807815682087616  0.7222466880339260
  0.0000000000000000  0.0000000000000000 -0.0000000000000000
  0.3333333333333333  0.0000000000000000 -0.0000000000000000
  0.6666666666666666  0.0000000000000000 -0.0000000000000000
  0.0000000000000000  0.3333333333333333 -0.0000000000000000
  0.3333333333333333  0.3333333333333333 -0.0000000000000000
  0.6666666666666666  0.3333333333333333 -0.0000000000000000
  0.0000000000000000  0.6666666666666666 -0.0000000000000000
  0.3333333333333333  0.6666666666666666 -0.0000000000000000
  0.6666666666666666  0.6666666666666666 -0.0000000000000000
  0.0000000000000000  0.0000000000000000  0.3333333333333333
  0.3333333333333333  0.0000000000000000  0.3333333333333333
  0.6666666666666666  0.0000000000000000  0.3333333333333333
  0.0000000000000000  0.3333333333333333  0.3333333333333333
  0.3333333333333333  0.3333333333333333  0.3333333333333333
  0.6666666666666666  0.3333333333333333  0.3333333333333333
 -0.0000000000000001  0.6666666666666666  0.3333333333333333
  0.3333333333333333  0.6666666666666666  0.3333333333333333
  0.6666666666666666  0.6666666666666666  0.3333333333333333
  0.0000000000000000  0.0000000000000000  0.6666666666666666
  0.3333333333333333  0.0000000000000000  0.6666666666666666
  0.6666666666666666  0.0000000000000000  0.6666666666666666
 -0.0000000000000000  0.3333333333333333  0.6666666666666666
  0.3333333333333333  0.3333333333333333  0.6666666666666666
  0.6666666666666666  0.3333333333333333  0.6666666666666666
  0.0000000000000000  0.6666666666666666  0.6666666666666666
  0.3333333333333333  0.6666666666666666  0.6666666666666666
  0.6666666666666666  0.6666666666666666  0.6666666666666666
  0.0000000000000000  0.0000000000000000  0.1666666666666667
  0.3333333333333333  0.0000000000000000  0.1666666666666667
  0.6666666666666666  0.0000000000000000  0.1666666666666667
 -0.0000000000000000  0.3333333333333333  0.1666666666666667
  0.3333333333333333  0.3333333333333333  0.1666666666666667
  0.6666666666666666  0.3333333333333333  0.1666666666666667
  0.0000000000000000  0.6666666666666666  0.1666666666666667
  0.3333333333333333  0.6666666666666666  0.1666666666666667
  0.6666666666666666  0.6666666666666666  0.1666666666666667
  0.0000000000000000  0.0000000000000000  0.5000000000000000
  0.3333333333333333  0.0000000000000000  0.5000000000000000
  0.6666666666666666  0.0000000000000000  0.5000000000000000
 -0.0000000000000000  0.3333333333333333  0.5000000000000000
  0.3333333333333333  0.3333333333333333  0.5000000000000000
  0.6666666666666666  0.3333333333333333  0.5000000000000000
 -0.0000000000000001  0.6666666666666666  0.5000000000000000
  0.3333333333333333  0.6666666666666666  0.5000000000000000
  0.6666666666666666  0.6666666666666665  0.5000000000000000
  0.0000000000000000  0.0000000000000000  0.8333333333333335
  0.3333333333333334  0.0000000000000000  0.8333333333333335
  0.6666666666666667  0.0000000000000000  0.8333333333333335
  0.0000000000000000  0.3333333333333333  0.8333333333333335
  0.3333333333333334  0.3333333333333333  0.8333333333333335
  0.6666666666666667  0.3333333333333333  0.8333333333333335
  0.0000000000000000  0.6666666666666666  0.8333333333333335
  0.3333333333333334  0.6666666666666666  0.8333333333333335
  0.6666666666666667  0.6666666666666666  0.8333333333333335
  0.0032366925690894  0.3300966407642438  0.0967418393324263
  0.3365700259024227  0.3300966407642438  0.0967418393324263
  0.6699033592357561  0.3300966407642438  0.0967418393324263
  0.0032366925690895  0.6634299740975772  0.0967418393324263
  0.3365700259024228  0.6634299740975772  0.0967418393324263
  0.6699033592357561  0.6634299740975772  0.0967418393324263
  0.0032366925690891  0.9967633074309104  0.0967418393324263
  0.3365700259024225  0.9967633074309104  0.0967418393324263
  0.6699033592357558  0.9967633074309104  0.0967418393324263
  0.0032366925690894  0.3300966407642438  0.4300751726657597
  0.3365700259024228  0.3300966407642438  0.4300751726657597
  0.6699033592357561  0.3300966407642438  0.4300751726657597
  0.0032366925690893  0.6634299740975771  0.4300751726657597
  0.3365700259024227  0.6634299740975771  0.4300751726657597
  0.6699033592357558  0.6634299740975771  0.4300751726657597
  0.0032366925690893  0.9967633074309106  0.4300751726657597
  0.3365700259024228  0.9967633074309106  0.4300751726657597
  0.6699033592357558  0.9967633074309104  0.4300751726657597
  0.0032366925690894  0.3300966407642438  0.7634085059990930
  0.3365700259024228  0.3300966407642438  0.7634085059990930
  0.6699033592357561  0.3300966407642438  0.7634085059990930
  0.0032366925690893  0.6634299740975771  0.7634085059990930
  0.3365700259024230  0.6634299740975773  0.7634085059990930
  0.6699033592357563  0.6634299740975773  0.7634085059990930
  0.0032366925690893  0.9967633074309106  0.7634085059990930
  0.3365700259024226  0.9967633074309104  0.7634085059990930
  0.6699033592357561  0.9967633074309106  0.7634085059990930
  0.0917271369277709  0.2416061964055624  0.1282395665948749
  0.4250604702611043  0.2416061964055624  0.1282395665948749
  0.7583938035944374  0.2416061964055624  0.1282395665948749
  0.0917271369277708  0.5749395297388957  0.1282395665948749
  0.4250604702611042  0.5749395297388957  0.1282395665948749
  0.7583938035944374  0.5749395297388957  0.1282395665948749
  0.0917271369277707  0.9082728630722290  0.1282395665948749
  0.4250604702611042  0.9082728630722290  0.1282395665948749
  0.7583938035944374  0.9082728630722290  0.1282395665948749
  0.0917271369277709  0.2416061964055624  0.4615728999282083
  0.4250604702611043  0.2416061964055624  0.4615728999282083
  0.7583938035944375  0.2416061964055624  0.4615728999282083
  0.0917271369277709  0.5749395297388958  0.4615728999282083
  0.4250604702611043  0.5749395297388957  0.4615728999282083
  0.7583938035944374  0.5749395297388957  0.4615728999282083
  0.0917271369277711  0.9082728630722292  0.4615728999282083
  0.4250604702611044  0.9082728630722292  0.4615728999282083
  0.7583938035944374  0.9082728630722289  0.4615728999282083
  0.0917271369277710  0.2416061964055625  0.7949062332615416
  0.4250604702611043  0.2416061964055624  0.7949062332615416
  0.7583938035944374  0.2416061964055624  0.7949062332615416
  0.0917271369277708  0.5749395297388957  0.7949062332615416
  0.4250604702611042  0.5749395297388957  0.7949062332615416
  0.7583938035944375  0.5749395297388957  0.7949062332615416
  0.0917271369277709  0.9082728630722290  0.7949062332615416
  0.4250604702611042  0.9082728630722290  0.7949062332615416
  0.7583938035944374  0.9082728630722290  0.7949062332615416
  0.1666666666666666  0.1666666666666666 -0.0000000000000000
  0.4999999999999999  0.1666666666666666 -0.0000000000000000
  0.8333333333333334  0.1666666666666666 -0.0000000000000000
  0.1666666666666666  0.4999999999999999 -0.0000000000000000
  0.4999999999999999  0.4999999999999999 -0.0000000000000000
  0.8333333333333334  0.4999999999999999 -0.0000000000000000
  0.1666666666666665  0.8333333333333333 -0.0000000000000000
  0.4999999999999999  0.8333333333333334 -0.0000000000000000
  0.8333333333333334  0.8333333333333334 -0.0000000000000000
  0.1666666666666666  0.1666666666666666  0.3333333333333333
  0.4999999999999999  0.1666666666666666  0.3333333333333333
  0.8333333333333334  0.1666666666666666  0.3333333333333333
  0.1666666666666666  0.4999999999999999  0.3333333333333333
  0.4999999999999998  0.4999999999999999  0.3333333333333333
  0.8333333333333334  0.4999999999999999  0.3333333333333333
  0.1666666666666667  0.8333333333333334  0.3333333333333333
  0.4999999999999998  0.8333333333333334  0.3333333333333333
  0.8333333333333334  0.8333333333333334  0.3333333333333333
  0.1666666666666666  0.1666666666666666  0.6666666666666666
  0.5000000000000000  0.1666666666666666  0.6666666666666666
  0.8333333333333334  0.1666666666666666  0.6666666666666666
  0.1666666666666665  0.4999999999999999  0.6666666666666666
  0.4999999999999998  0.4999999999999999  0.6666666666666666
  0.8333333333333334  0.4999999999999999  0.6666666666666666
  0.1666666666666667  0.8333333333333336  0.6666666666666666
  0.4999999999999998  0.8333333333333333  0.6666666666666666
  0.8333333333333336  0.8333333333333336  0.6666666666666666
  0.2489816147369746  0.0843517185963587  0.0398427659229788
  0.5823149480703080  0.0843517185963586  0.0398427659229788
  0.9156482814036414  0.0843517185963587  0.0398427659229788
  0.2489816147369746  0.4176850519296920  0.0398427659229788
  0.5823149480703079  0.4176850519296920  0.0398427659229788
  0.9156482814036414  0.4176850519296920  0.0398427659229788
  0.2489816147369745  0.7510183852630252  0.0398427659229788
  0.5823149480703080  0.7510183852630253  0.0398427659229788
  0.9156482814036414  0.7510183852630253  0.0398427659229788
  0.2489816147369746  0.0843517185963587  0.3731760992563122
  0.5823149480703080  0.0843517185963587  0.3731760992563122
  0.9156482814036414  0.0843517185963587  0.3731760992563122
  0.2489816147369745  0.4176850519296920  0.3731760992563122
  0.5823149480703079  0.4176850519296919  0.3731760992563122
  0.9156482814036414  0.4176850519296920  0.3731760992563122
  0.2489816147369745  0.7510183852630252  0.3731760992563122
  0.5823149480703079  0.7510183852630252  0.3731760992563122
  0.9156482814036414  0.7510183852630252  0.3731760992563122
  0.2489816147369746  0.0843517185963587  0.7065094325896455
  0.5823149480703080  0.0843517185963587  0.7065094325896455
  0.9156482814036414  0.0843517185963587  0.7065094325896455
  0.2489816147369745  0.4176850519296919  0.7065094325896455
  0.5823149480703079  0.4176850519296919  0.7065094325896455
  0.9156482814036412  0.4176850519296919  0.7065094325896455
  0.2489816147369745  0.7510183852630253  0.7065094325896455
  0.5823149480703079  0.7510183852630253  0.7065094325896455
  0.9156482814036414  0.7510183852630252  0.7065094325896455
  0.2416061964055625  0.0917271369277708  0.2050937667384584
  0.5749395297388958  0.0917271369277708  0.2050937667384584
  0.9082728630722293  0.0917271369277709  0.2050937667384584
  0.2416061964055624  0.4250604702611042  0.2050937667384584
  0.5749395297388958  0.4250604702611042  0.2050937667384584
  0.9082728630722289  0.4250604702611042  0.2050937667384584
  0.2416061964055625  0.7583938035944375  0.2050937667384584
  0.5749395297388958  0.7583938035944374  0.2050937667384584
  0.9082728630722289  0.7583938035944374  0.2050937667384584
  0.2416061964055625  0.0917271369277709  0.5384271000717917
  0.5749395297388958  0.0917271369277708  0.5384271000717917
  0.9082728630722291  0.0917271369277709  0.5384271000717917
  0.2416061964055624  0.4250604702611042  0.5384271000717917
  0.5749395297388958  0.4250604702611042  0.5384271000717917
  0.9082728630722289  0.4250604702611042  0.5384271000717917
  0.2416061964055624  0.7583938035944375  0.5384271000717917
  0.5749395297388958  0.7583938035944374  0.5384271000717917
  0.9082728630722291  0.7583938035944375  0.5384271000717917
  0.2416061964055625  0.0917271369277708  0.8717604334051251
  0.5749395297388958  0.0917271369277708  0.8717604334051251
  0.9082728630722291  0.0917271369277709  0.8717604334051251
  0.2416061964055625  0.4250604702611043  0.8717604334051251
  0.5749395297388958  0.4250604702611042  0.8717604334051251
  0.9082728630722291  0.4250604702611043  0.8717604334051251
  0.2416061964055625  0.7583938035944375  0.8717604334051251
  0.5749395297388958  0.7583938035944375  0.8717604334051251
  0.9082728630722291  0.7583938035944375  0.8717604334051251
  0.0843517185963587  0.2489816147369744  0.2934905674103545
  0.4176850519296920  0.2489816147369744  0.2934905674103545
  0.7510183852630253  0.2489816147369745  0.2934905674103545
  0.0843517185963587  0.5823149480703078  0.2934905674103545
  0.4176850519296921  0.5823149480703078  0.2934905674103545
  0.7510183852630254  0.5823149480703078  0.2934905674103545
  0.0843517185963585  0.9156482814036411  0.2934905674103545
  0.4176850519296920  0.9156482814036411  0.2934905674103545
  0.7510183852630253  0.9156482814036411  0.2934905674103545
  0.0843517185963586  0.2489816147369744  0.6268239007436879
  0.4176850519296920  0.2489816147369744  0.6268239007436879
  0.7510183852630253  0.2489816147369744  0.6268239007436879
  0.0843517185963587  0.5823149480703078  0.6268239007436879
  0.4176850519296921  0.5823149480703078  0.6268239007436879
  0.7510183852630253  0.5823149480703078  0.6268239007436879
  0.0843517185963587  0.9156482814036413  0.6268239007436879
  0.4176850519296922  0.9156482814036413  0.6268239007436879
  0.7510183852630254  0.9156482814036413  0.6268239007436879
  0.0843517185963587  0.2489816147369744  0.9601572340770211
  0.4176850519296921  0.2489816147369745  0.9601572340770211
  0.7510183852630254  0.2489816147369745  0.9601572340770211
  0.0843517185963587  0.5823149480703078  0.9601572340770211
  0.4176850519296921  0.5823149480703078  0.9601572340770211
  0.7510183852630254  0.5823149480703078  0.9601572340770211
  0.0843517185963585  0.9156482814036410  0.9601572340770211
  0.4176850519296922  0.9156482814036413  0.9601572340770211
  0.7510183852630256  0.9156482814036413  0.9601572340770211
  0.3300966407642439  0.0032366925690895  0.2365914940009070
  0.6634299740975772  0.0032366925690894  0.2365914940009070
  0.9967633074309108  0.0032366925690896  0.2365914940009070
  0.3300966407642439  0.3365700259024229  0.2365914940009070
  0.6634299740975773  0.3365700259024228  0.2365914940009070
  0.9967633074309106  0.3365700259024229  0.2365914940009070
  0.3300966407642441  0.6699033592357562  0.2365914940009070
  0.6634299740975772  0.6699033592357559  0.2365914940009070
  0.9967633074309108  0.6699033592357562  0.2365914940009070
  0.3300966407642439  0.0032366925690895  0.5699248273342403
  0.6634299740975772  0.0032366925690894  0.5699248273342403
  0.9967633074309106  0.0032366925690895  0.5699248273342403
  0.3300966407642438  0.3365700259024228  0.5699248273342403
  0.6634299740975773  0.3365700259024228  0.5699248273342403
  0.9967633074309106  0.3365700259024228  0.5699248273342403
  0.3300966407642438  0.6699033592357561  0.5699248273342403
  0.6634299740975773  0.6699033592357561  0.5699248273342403
  0.9967633074309106  0.6699033592357561  0.5699248273342403
  0.3300966407642439  0.0032366925690895  0.9032581606675736
  0.6634299740975773  0.0032366925690894  0.9032581606675736
  0.9967633074309106  0.0032366925690896  0.9032581606675736
  0.3300966407642438  0.3365700259024228  0.9032581606675736
  0.6634299740975773  0.3365700259024228  0.9032581606675736
  0.9967633074309106  0.3365700259024229  0.9032581606675736
  0.3300966407642438  0.6699033592357561  0.9032581606675736
  0.6634299740975773  0.6699033592357561  0.9032581606675736
  0.9967633074309106  0.6699033592357561  0.9032581606675736
