generated by phonopy
   1.0
     1.7696508755917555    6.1958114899677064    0.0000000000000000
     1.7696508755917555   -6.1958114899677064    0.0000000000000000
     0.0000000000000000   -0.9457989048972840   -6.5432785279735839
Ag Bi O
   2    2    4
Direct
  0.0000000000000000  0.0000000000000000  0.0000000000000000
  0.5000000000000000  0.5000000000000000  0.4999999999999999
  0.7593807962563475  0.2406192037436525  0.2600710299510521
  0.2406192037436525  0.7593807962563475  0.7399289700489479
  0.3363031384530339  0.6636968615469661  0.4887649526766545
  0.6636968615469662  0.3363031384530338  0.5112350473233453
  0.8385980411437948  0.1614019588562052  0.8817605202448504
  0.1614019588562052  0.8385980411437947  0.1182394797551496
