Ag Bi  O 
 1.0000000000000000
     5.3089526267752660   18.5874344699031191    0.0000000000000000
     5.3089526267752660  -18.5874344699031191    0.0000000000000000
     0.0000000000000000   -2.8373967146918520  -19.6298355839207517
 Ag  Bi  O  
  54  54 108
Direct
  0.0000000000000000  0.0000000000000000 -0.0000000000000000
  0.3333333333333333  0.0000000000000000 -0.0000000000000000
  0.6666666666666666  0.0000000000000000 -0.0000000000000000
  0.0000000000000000  0.3333333333333333 -0.0000000000000000
  0.3333333333333333  0.3333333333333333 -0.0000000000000000
  0.6666666666666666  0.3333333333333333 -0.0000000000000000
  0.0000000000000000  0.6666666666666666 -0.0000000000000000
  0.3333333333333333  0.6666666666666666 -0.0000000000000000
  0.6666666666666666  0.6666666666666666 -0.0000000000000000
  0.0000000000000000 -0.0000000000000000  0.3333333333333334
  0.3333333333333333 -0.0000000000000000  0.3333333333333334
  0.6666666666666666 -0.0000000000000000  0.3333333333333334
  0.0000000000000000  0.3333333333333333  0.3333333333333334
  0.3333333333333333  0.3333333333333333  0.3333333333333334
  0.6666666666666666  0.3333333333333333  0.3333333333333334
  0.0000000000000000  0.6666666666666666  0.3333333333333334
  0.3333333333333333  0.6666666666666666  0.3333333333333334
  0.6666666666666666  0.6666666666666666  0.3333333333333334
  0.0000000000000000 -0.0000000000000000  0.6666666666666667
  0.3333333333333333 -0.0000000000000000  0.6666666666666667
  0.6666666666666666 -0.0000000000000000  0.6666666666666667
 -0.0000000000000001  0.3333333333333333  0.6666666666666667
  0.3333333333333332  0.3333333333333333  0.6666666666666667
  0.6666666666666666  0.3333333333333333  0.6666666666666667
  0.0000000000000000  0.6666666666666666  0.6666666666666667
  0.3333333333333333  0.6666666666666666  0.6666666666666667
  0.6666666666666666  0.6666666666666666  0.6666666666666667
  0.1666666666666667  0.1666666666666667  0.1666666666666666
  0.5000000000000000  0.1666666666666666  0.1666666666666666
  0.8333333333333334  0.1666666666666667  0.1666666666666666
  0.1666666666666666  0.4999999999999999  0.1666666666666666
  0.4999999999999999  0.4999999999999999  0.1666666666666666
  0.8333333333333333  0.4999999999999999  0.1666666666666666
  0.1666666666666667  0.8333333333333334  0.1666666666666666
  0.5000000000000000  0.8333333333333334  0.1666666666666666
  0.8333333333333333  0.8333333333333334  0.1666666666666666
  0.1666666666666667  0.1666666666666667  0.5000000000000000
  0.4999999999999999  0.1666666666666666  0.5000000000000000
  0.8333333333333334  0.1666666666666667  0.5000000000000000
  0.1666666666666666  0.4999999999999999  0.5000000000000000
  0.4999999999999999  0.4999999999999999  0.5000000000000000
  0.8333333333333333  0.5000000000000000  0.5000000000000000
  0.1666666666666667  0.8333333333333334  0.5000000000000000
  0.4999999999999999  0.8333333333333333  0.5000000000000000
  0.8333333333333333  0.8333333333333334  0.5000000000000000
  0.1666666666666666  0.1666666666666666  0.8333333333333334
  0.5000000000000000  0.1666666666666666  0.8333333333333334
  0.8333333333333334  0.1666666666666667  0.8333333333333334
  0.1666666666666665  0.4999999999999999  0.8333333333333334
  0.4999999999999999  0.4999999999999999  0.8333333333333334
  0.8333333333333333  0.4999999999999999  0.8333333333333334
  0.1666666666666666  0.8333333333333334  0.8333333333333334
  0.5000000000000000  0.8333333333333334  0.8333333333333334
  0.8333333333333333  0.8333333333333334  0.8333333333333334
  0.2531269320854492  0.0802064012478842  0.0866903433170174
  0.5864602654187825  0.0802064012478841  0.0866903433170174
  0.9197935987521157  0.0802064012478841  0.0866903433170174
  0.2531269320854491  0.4135397345812175  0.0866903433170174
  0.5864602654187824  0.4135397345812175  0.0866903433170174
  0.9197935987521160  0.4135397345812176  0.0866903433170174
  0.2531269320854491  0.7468730679145507  0.0866903433170174
  0.5864602654187823  0.7468730679145507  0.0866903433170174
  0.9197935987521155  0.7468730679145507  0.0866903433170174
  0.2531269320854492  0.0802064012478842  0.4200236766503507
  0.5864602654187825  0.0802064012478841  0.4200236766503507
  0.9197935987521157  0.0802064012478842  0.4200236766503507
  0.2531269320854492  0.4135397345812175  0.4200236766503507
  0.5864602654187824  0.4135397345812175  0.4200236766503507
  0.9197935987521157  0.4135397345812175  0.4200236766503507
  0.2531269320854492  0.7468730679145508  0.4200236766503507
  0.5864602654187823  0.7468730679145507  0.4200236766503507
  0.9197935987521157  0.7468730679145508  0.4200236766503507
  0.2531269320854492  0.0802064012478841  0.7533570099836842
  0.5864602654187825  0.0802064012478841  0.7533570099836842
  0.9197935987521157  0.0802064012478841  0.7533570099836842
  0.2531269320854492  0.4135397345812175  0.7533570099836842
  0.5864602654187825  0.4135397345812175  0.7533570099836842
  0.9197935987521160  0.4135397345812176  0.7533570099836842
  0.2531269320854493  0.7468730679145509  0.7533570099836842
  0.5864602654187823  0.7468730679145507  0.7533570099836842
  0.9197935987521160  0.7468730679145509  0.7533570099836842
  0.0802064012478842  0.2531269320854492  0.2466429900163160
  0.4135397345812175  0.2531269320854492  0.2466429900163160
  0.7468730679145508  0.2531269320854492  0.2466429900163160
  0.0802064012478841  0.5864602654187825  0.2466429900163160
  0.4135397345812175  0.5864602654187825  0.2466429900163160
  0.7468730679145505  0.5864602654187824  0.2466429900163160
  0.0802064012478841  0.9197935987521157  0.2466429900163160
  0.4135397345812174  0.9197935987521157  0.2466429900163160
  0.7468730679145508  0.9197935987521157  0.2466429900163160
  0.0802064012478841  0.2531269320854492  0.5799763233496493
  0.4135397345812175  0.2531269320854492  0.5799763233496493
  0.7468730679145507  0.2531269320854492  0.5799763233496493
  0.0802064012478840  0.5864602654187824  0.5799763233496493
  0.4135397345812175  0.5864602654187825  0.5799763233496493
  0.7468730679145507  0.5864602654187824  0.5799763233496493
  0.0802064012478841  0.9197935987521157  0.5799763233496493
  0.4135397345812173  0.9197935987521156  0.5799763233496493
  0.7468730679145505  0.9197935987521156  0.5799763233496493
  0.0802064012478842  0.2531269320854492  0.9133096566829827
  0.4135397345812175  0.2531269320854492  0.9133096566829827
  0.7468730679145509  0.2531269320854492  0.9133096566829827
  0.0802064012478840  0.5864602654187824  0.9133096566829827
  0.4135397345812173  0.5864602654187824  0.9133096566829827
  0.7468730679145507  0.5864602654187824  0.9133096566829827
  0.0802064012478843  0.9197935987521160  0.9133096566829827
  0.4135397345812175  0.9197935987521157  0.9133096566829827
  0.7468730679145509  0.9197935987521157  0.9133096566829827
  0.1121010461510113  0.2212322871823220  0.1629216508922182
  0.4454343794843447  0.2212322871823220  0.1629216508922182
  0.7787677128176779  0.2212322871823220  0.1629216508922182
  0.1121010461510112  0.5545656205156554  0.1629216508922182
  0.4454343794843447  0.5545656205156554  0.1629216508922182
  0.7787677128176781  0.5545656205156554  0.1629216508922182
  0.1121010461510113  0.8878989538489886  0.1629216508922182
  0.4454343794843447  0.8878989538489886  0.1629216508922182
  0.7787677128176783  0.8878989538489889  0.1629216508922182
  0.1121010461510112  0.2212322871823220  0.4962549842255515
  0.4454343794843447  0.2212322871823220  0.4962549842255515
  0.7787677128176780  0.2212322871823219  0.4962549842255515
  0.1121010461510112  0.5545656205156553  0.4962549842255515
  0.4454343794843446  0.5545656205156553  0.4962549842255515
  0.7787677128176780  0.5545656205156554  0.4962549842255515
  0.1121010461510112  0.8878989538489885  0.4962549842255515
  0.4454343794843447  0.8878989538489886  0.4962549842255515
  0.7787677128176780  0.8878989538489886  0.4962549842255515
  0.1121010461510113  0.2212322871823220  0.8295883175588848
  0.4454343794843447  0.2212322871823220  0.8295883175588848
  0.7787677128176780  0.2212322871823220  0.8295883175588848
  0.1121010461510112  0.5545656205156553  0.8295883175588848
  0.4454343794843446  0.5545656205156553  0.8295883175588848
  0.7787677128176780  0.5545656205156554  0.8295883175588848
  0.1121010461510112  0.8878989538489885  0.8295883175588848
  0.4454343794843444  0.8878989538489885  0.8295883175588848
  0.7787677128176780  0.8878989538489886  0.8295883175588848
  0.2212322871823220  0.1121010461510112  0.1704116824411151
  0.5545656205156553  0.1121010461510112  0.1704116824411151
  0.8878989538489888  0.1121010461510113  0.1704116824411151
  0.2212322871823220  0.4454343794843446  0.1704116824411151
  0.5545656205156554  0.4454343794843446  0.1704116824411151
  0.8878989538489886  0.4454343794843446  0.1704116824411151
  0.2212322871823221  0.7787677128176781  0.1704116824411151
  0.5545656205156554  0.7787677128176780  0.1704116824411151
  0.8878989538489888  0.7787677128176781  0.1704116824411151
  0.2212322871823220  0.1121010461510112  0.5037450157744484
  0.5545656205156553  0.1121010461510112  0.5037450157744484
  0.8878989538489886  0.1121010461510113  0.5037450157744484
  0.2212322871823220  0.4454343794843446  0.5037450157744484
  0.5545656205156554  0.4454343794843446  0.5037450157744484
  0.8878989538489886  0.4454343794843446  0.5037450157744484
  0.2212322871823220  0.7787677128176780  0.5037450157744484
  0.5545656205156554  0.7787677128176780  0.5037450157744484
  0.8878989538489888  0.7787677128176781  0.5037450157744484
  0.2212322871823220  0.1121010461510112  0.8370783491077818
  0.5545656205156553  0.1121010461510112  0.8370783491077818
  0.8878989538489886  0.1121010461510113  0.8370783491077818
  0.2212322871823219  0.4454343794843444  0.8370783491077818
  0.5545656205156554  0.4454343794843446  0.8370783491077818
  0.8878989538489886  0.4454343794843446  0.8370783491077818
  0.2212322871823220  0.7787677128176780  0.8370783491077818
  0.5545656205156554  0.7787677128176780  0.8370783491077818
  0.8878989538489886  0.7787677128176780  0.8370783491077818
  0.2795326803812649  0.0538006529520684  0.2939201734149501
  0.6128660137145983  0.0538006529520684  0.2939201734149501
  0.9461993470479315  0.0538006529520684  0.2939201734149501
  0.2795326803812649  0.3871339862854017  0.2939201734149501
  0.6128660137145983  0.3871339862854017  0.2939201734149501
  0.9461993470479315  0.3871339862854017  0.2939201734149501
  0.2795326803812648  0.7204673196187349  0.2939201734149501
  0.6128660137145983  0.7204673196187351  0.2939201734149501
  0.9461993470479315  0.7204673196187351  0.2939201734149501
  0.2795326803812649  0.0538006529520684  0.6272535067482835
  0.6128660137145983  0.0538006529520684  0.6272535067482835
  0.9461993470479315  0.0538006529520684  0.6272535067482835
  0.2795326803812649  0.3871339862854017  0.6272535067482835
  0.6128660137145983  0.3871339862854017  0.6272535067482835
  0.9461993470479315  0.3871339862854017  0.6272535067482835
  0.2795326803812649  0.7204673196187350  0.6272535067482835
  0.6128660137145985  0.7204673196187352  0.6272535067482835
  0.9461993470479317  0.7204673196187352  0.6272535067482835
  0.2795326803812649  0.0538006529520684  0.9605868400816169
  0.6128660137145983  0.0538006529520684  0.9605868400816169
  0.9461993470479315  0.0538006529520684  0.9605868400816169
  0.2795326803812649  0.3871339862854017  0.9605868400816169
  0.6128660137145983  0.3871339862854017  0.9605868400816169
  0.9461993470479315  0.3871339862854019  0.9605868400816169
  0.2795326803812649  0.7204673196187351  0.9605868400816169
  0.6128660137145983  0.7204673196187351  0.9605868400816169
  0.9461993470479317  0.7204673196187352  0.9605868400816169
  0.0538006529520685  0.2795326803812650  0.0394131599183832
  0.3871339862854018  0.2795326803812649  0.0394131599183832
  0.7204673196187350  0.2795326803812649  0.0394131599183832
  0.0538006529520684  0.6128660137145983  0.0394131599183832
  0.3871339862854017  0.6128660137145981  0.0394131599183832
  0.7204673196187350  0.6128660137145983  0.0394131599183832
  0.0538006529520683  0.9461993470479315  0.0394131599183832
  0.3871339862854018  0.9461993470479315  0.0394131599183832
  0.7204673196187351  0.9461993470479317  0.0394131599183832
  0.0538006529520684  0.2795326803812649  0.3727464932517166
  0.3871339862854018  0.2795326803812649  0.3727464932517166
  0.7204673196187350  0.2795326803812649  0.3727464932517166
  0.0538006529520683  0.6128660137145981  0.3727464932517166
  0.3871339862854017  0.6128660137145981  0.3727464932517166
  0.7204673196187350  0.6128660137145983  0.3727464932517166
  0.0538006529520683  0.9461993470479315  0.3727464932517166
  0.3871339862854018  0.9461993470479315  0.3727464932517166
  0.7204673196187350  0.9461993470479315  0.3727464932517166
  0.0538006529520684  0.2795326803812649  0.7060798265850498
  0.3871339862854017  0.2795326803812649  0.7060798265850498
  0.7204673196187350  0.2795326803812649  0.7060798265850498
  0.0538006529520684  0.6128660137145983  0.7060798265850498
  0.3871339862854018  0.6128660137145983  0.7060798265850498
  0.7204673196187350  0.6128660137145983  0.7060798265850498
  0.0538006529520685  0.9461993470479315  0.7060798265850498
  0.3871339862854017  0.9461993470479315  0.7060798265850498
  0.7204673196187352  0.9461993470479317  0.7060798265850498
